\ This file has been generated by DOcplex
\ ENCODING=ISO-8859-1
\Problem name: random_problem.lp

Minimize
 obj: 432 x0 + 216 x1 + 108 x2 + 108 x3 + 54 x4 + 27 x5 - 304 x6 - 152 x7
      - 76 x8 + [ 4576 x0^2 + 4576 x0*x1 + 2288 x0*x2 + 640 x0*x3 + 320 x0*x4
      + 160 x0*x5 + 3648 x0*x6 + 1824 x0*x7 + 912 x0*x8 + 1144 x1^2 + 1144 x1*x2
      + 320 x1*x3 + 160 x1*x4 + 80 x1*x5 + 1824 x1*x6 + 912 x1*x7 + 456 x1*x8
      + 286 x2^2 + 160 x2*x3 + 80 x2*x4 + 40 x2*x5 + 912 x2*x6 + 456 x2*x7
      + 228 x2*x8 + 1568 x3^2 + 1568 x3*x4 + 784 x3*x5 + 640 x3*x6 + 320 x3*x7
      + 160 x3*x8 + 392 x4^2 + 392 x4*x5 + 320 x4*x6 + 160 x4*x7 + 80 x4*x8
      + 98 x5^2 + 160 x5*x6 + 80 x5*x7 + 40 x5*x8 + 1920 x6^2 + 1920 x6*x7
      + 960 x6*x8 + 480 x7^2 + 480 x7*x8 + 120 x8^2 ]/2
Subject To
 c0: 4 x0 + 2 x1 + x2 + 4 x3 + 2 x4 + x5 + 4 x6 + 2 x7 + x8 = 7

Bounds
 0 <= x0 <= 1
 0 <= x1 <= 1
 0 <= x2 <= 1
 0 <= x3 <= 1
 0 <= x4 <= 1
 0 <= x5 <= 1
 0 <= x6 <= 1
 0 <= x7 <= 1
 0 <= x8 <= 1

Binaries
 x0 x1 x2 x3 x4 x5 x6 x7 x8
End
